n_students = 5;
n_companies = 4;
best_expectations = [5, 3, 4, 3, 5];
preferences = [|3, 4, 1, 1
 |2, 4, 4, 1
 |3, 4, 3, 5
 |5, 2, 3, 1
 |2, 2, 1, 2
 |];

min_capacities = [1, 1, 1, 1];
max_capacities = [4, 6, 5, 3];
attendance_costs = [20, 20, 10, 30];
parallel_limits = [2, 1, 2, 1];

slots = [{1, 2, 3, 13, 14, 15, 16, 17, 18, 19, 20},
 {1, 2, 3, 4, 5, 6, 7, 8, 9, 18, 19, 20},
 {10, 11, 12, 13, 14, 15, 16, 17, 18, 19, 20},
 {1, 2, 3, 4, 5, 6, 7, 8, 9},
 {16, 17, 18, 19, 20}
];